133 300 85 80 92 59 52 83 97 91 62 65 65 85 80 60 63 50 81 81 100 94 68 95 82 76 66 70 68 56 56 92 65 91 71 81 100 99 89 97 89 50 86 78 85 65 62 72 65 93 52 89 60 70 83 92 70 73 87 89 54 93 54 69 84 50 74 57 99 62 53 61 87 63 89 71 78 51 68 67 68 70 56 79 65 63 95 59 87 55 72 91 99 77 84 56 77 57 88 75 95 66 60 81 79 99 52 82 74 70 73 67 64 53 70 53 67 64 63 78 70 85 93 93 86 76 73 62 57 60 61 51 76 71 57 